1188
0 60 122 154 235 300 353 384 482 516 543 603 646 676 700 761 801 808 823 887 
0 14 56 139 151 235 259 346 415 460 497 535 607 661 727 772 776 867 887 936 
0 60 105 139 235 300 375 467 536 576 607 676 761 779 867 916 984 1009 1010 1105 
0 77 138 180 245 353 434 518 551 559 580 606 664 755 762 897 988 1079 1093 1139 
